analyze/results_flowersnark/final_miplib_symretope_if_extended_generating_set_cpx_v802__settings_final_nosym_norestarts__0__neos-503737.mps.gz.sol
solution status: optimal solution found
objective value:                     50.0000000000001
C0376                                               1 	(obj:0)
C0412                                               1 	(obj:0)
C0491                                               1 	(obj:0)
C0537                                               1 	(obj:0)
C0565                                               1 	(obj:0)
C0578                                               1 	(obj:0)
C0610                                               1 	(obj:0)
C0654                                               1 	(obj:0)
C0749                                               1 	(obj:0)
C0783                                               1 	(obj:0)
C0809                                               1 	(obj:0)
C0870                                               1 	(obj:0)
C0943                                               1 	(obj:0)
C0994                                               1 	(obj:0)
C1017                                               1 	(obj:0)
C1072                                               1 	(obj:0)
C1105                                               1 	(obj:0)
C1138                                               1 	(obj:0)
C1181                                               1 	(obj:0)
C1234                                               1 	(obj:0)
C1271                                               1 	(obj:0)
C1350                                               1 	(obj:0)
C1385                                               1 	(obj:0)
C1403                                               1 	(obj:0)
C1418                                               1 	(obj:0)
C1477                                               1 	(obj:0)
C1546                                               1 	(obj:0)
C1558                                               1 	(obj:0)
C1632                                               1 	(obj:0)
C1663                                               1 	(obj:0)
C1679                                               1 	(obj:0)
C1747                                               1 	(obj:0)
C1756                                               1 	(obj:0)
C1825                                               1 	(obj:0)
C1866                                               1 	(obj:0)
C1924                                               1 	(obj:0)
C1995                                               1 	(obj:0)
C2040                                               1 	(obj:0)
C2052                                               1 	(obj:0)
C2069                                               1 	(obj:0)
C2101                                               1 	(obj:0)
C2189                                               1 	(obj:0)
C2223                                               1 	(obj:0)
C2257                                               1 	(obj:0)
C2336                                               1 	(obj:0)
C2392                                               1 	(obj:0)
C2448                                               1 	(obj:0)
C2461                                               1 	(obj:0)
C2530                                               1 	(obj:0)
C2564                                               1 	(obj:0)
C0096                                1.00000000000001 	(obj:10)
C0097                                               1 	(obj:10)
C0098                                               1 	(obj:10)
C0099                                               1 	(obj:10)
C0100                                               1 	(obj:10)
