analyze/results_flowersnark/final_miplib_symretope_if_extended_generating_set_cpx_v802__settings_final_nosym_norestarts__0__neos-503737.mps.gz.out
FILENAME:   /home/mcs001/s132664/testsets/IP/miplib2017/neos-503737.mps.gz
SETTINGS:   settings_final_nosym_norestarts
TIMELIMIT:  7200
OUTPUTNAME: final_miplib_symretope_if_extended_generating_set_cpx_v802__settings_final_nosym_norestarts__0__
BINNAME:    bin/sbcs.linux.x86_64.gnu.opt.cpx
BASENAME:   neos-503737.mps.gz
SEED:       0
@01 /home/mcs001/s132664/testsets/IP/miplib2017/neos-503737.mps.gz ===========
@02 neos-503737.mps.gz
@03 1686649234
SCIP version 8.0.2 [precision: 8 byte] [memory: block] [mode: optimized] [LP solver: CPLEX 20.1.0.0] [GitHash: 5f0473c]
Copyright (C) 2002-2022 Konrad-Zuse-Zentrum fuer Informationstechnik Berlin (ZIB)

Symretope propagation methods - (c) Jasper van Doornmalen, Christopher Hojny.
[GitHash: 2fd0484]

reading parameter file <../settings/settings_final_nosym_norestarts.set> ...

Changed settings:
limits/time = 7200
limits/restarts = 0
misc/usesymmetry = 0
constraints/orbisack/sepafreq = -1
constraints/symresack/sepafreq = -1
propagating/symmetry/detectsubgroups = FALSE
propagating/symmetry/usesymretopes = FALSE
propagating/symmetry/relabelsymretopes = 0
propagating/symmetry/ofsymcomptiming = 0
constraints/symretope/sepafreq = -1
constraints/symretope/peek = FALSE


solving problem ...

original problem has 2850 variables (2500 bin, 0 int, 0 impl, 350 cont) and 500 constraints
presolving:
(round 1, fast)       0 del vars, 0 del conss, 0 add conss, 350 chg bounds, 0 chg sides, 0 chg coeffs, 0 upgd conss, 0 impls, 150 clqs
(round 2, exhaustive) 0 del vars, 0 del conss, 0 add conss, 350 chg bounds, 0 chg sides, 0 chg coeffs, 200 upgd conss, 0 impls, 150 clqs
   (0.1s) probing: 51/2550 (2.0%) - 0 fixings, 0 aggregations, 0 implications, 0 bound changes
   (0.1s) probing aborted: 50/50 successive totally useless probings
presolving (3 rounds: 3 fast, 2 medium, 2 exhaustive):
 0 deleted vars, 0 deleted constraints, 0 added constraints, 350 tightened bounds, 0 added holes, 0 changed sides, 0 changed coefficients
 0 implications, 150 cliques
presolved problem has 2850 variables (2500 bin, 0 int, 350 impl, 0 cont) and 500 constraints
    150 constraints of type <setppc>
    300 constraints of type <linear>
     50 constraints of type <logicor>
transformed objective value is always integral (scale: 1)
Presolving Time: 0.13

 time | node  | left  |LP iter|LP it/n|mem/heur|mdpt |vars |cons |rows |cuts |sepa|confs|strbr|  dualbound   | primalbound  |  gap   | compl. 
p 0.2s|     1 |     0 |     0 |     - |  clique|   0 |2850 | 500 | 500 |   0 |  0 |   0 |   0 | 0.000000e+00 | 5.030000e+03 |    Inf | unknown
p 0.2s|     1 |     0 |     0 |     - |   locks|   0 |2850 | 504 | 500 |   0 |  0 |   4 |   0 | 0.000000e+00 | 3.040000e+02 |    Inf | unknown
  0.2s|     1 |     0 |     1 |     - |    33M |   0 |2850 | 514 | 500 |   0 |  0 |  14 |   0 | 5.000000e+01 | 3.040000e+02 | 508.00%| unknown
  0.3s|     1 |     0 |     1 |     - |    33M |   0 |2850 | 514 | 500 |   0 |  0 |  14 |   0 | 5.000000e+01 | 3.040000e+02 | 508.00%| unknown
  0.4s|     1 |     0 |   193 |     - |    35M |   0 |2850 | 514 | 506 |   6 |  1 |  14 |   0 | 5.000000e+01 | 3.040000e+02 | 508.00%| unknown
  0.4s|     1 |     0 |   304 |     - |    35M |   0 |2850 | 514 | 507 |   7 |  2 |  14 |   0 | 5.000000e+01 | 3.040000e+02 | 508.00%| unknown
  0.4s|     1 |     0 |   429 |     - |    35M |   0 |2850 | 514 | 508 |   8 |  3 |  14 |   0 | 5.000000e+01 | 3.040000e+02 | 508.00%| unknown
  0.5s|     1 |     0 |   791 |     - |    35M |   0 |2850 | 514 | 517 |  17 |  4 |  14 |   0 | 5.000000e+01 | 3.040000e+02 | 508.00%| unknown
  0.5s|     1 |     0 |   950 |     - |    35M |   0 |2850 | 514 | 521 |  21 |  5 |  14 |   0 | 5.000000e+01 | 3.040000e+02 | 508.00%| unknown
  0.6s|     1 |     0 |  1093 |     - |    35M |   0 |2850 | 514 | 525 |  25 |  6 |  14 |   0 | 5.000000e+01 | 3.040000e+02 | 508.00%| unknown
  0.6s|     1 |     0 |  1217 |     - |    35M |   0 |2850 | 514 | 528 |  28 |  7 |  14 |   0 | 5.000000e+01 | 3.040000e+02 | 508.00%| unknown
  0.7s|     1 |     0 |  1339 |     - |    36M |   0 |2850 | 514 | 531 |  31 |  8 |  14 |   0 | 5.000000e+01 | 3.040000e+02 | 508.00%| unknown
  0.7s|     1 |     0 |  1465 |     - |    36M |   0 |2850 | 514 | 535 |  35 |  9 |  14 |   0 | 5.000000e+01 | 3.040000e+02 | 508.00%| unknown
  0.7s|     1 |     0 |  1590 |     - |    36M |   0 |2850 | 514 | 539 |  39 | 10 |  14 |   0 | 5.000000e+01 | 3.040000e+02 | 508.00%| unknown
  0.8s|     1 |     0 |  1731 |     - |    36M |   0 |2850 | 514 | 541 |  42 | 11 |  14 |   0 | 5.000000e+01 | 3.040000e+02 | 508.00%| unknown
 time | node  | left  |LP iter|LP it/n|mem/heur|mdpt |vars |cons |rows |cuts |sepa|confs|strbr|  dualbound   | primalbound  |  gap   | compl. 
o 0.9s|     1 |     0 |  2967 |     - |feaspump|   0 |2850 | 517 | 541 |  42 | 11 |  18 |   0 | 5.000000e+01 | 8.500000e+01 |  70.00%| unknown
  1.1s|     1 |     0 |  4725 |     - |    36M |   0 |2850 | 517 | 541 |  42 | 11 |  18 |   0 | 5.000000e+01 | 8.500000e+01 |  70.00%| unknown
  1.2s|     1 |     0 |  4918 |     - |    36M |   0 |2850 | 521 | 552 |  53 | 12 |  22 |   0 | 5.000000e+01 | 8.500000e+01 |  70.00%| unknown
  1.2s|     1 |     0 |  5043 |     - |    36M |   0 |2850 | 521 | 554 |  55 | 13 |  22 |   0 | 5.000000e+01 | 8.500000e+01 |  70.00%| unknown
  1.5s|     1 |     2 |  5043 |     - |    36M |   0 |2850 | 521 | 554 |  55 | 13 |  22 |  10 | 5.000000e+01 | 8.500000e+01 |  70.00%| unknown
* 6.2s|    26 |    24 | 11902 | 394.1 |strongbr|  25 |2850 | 521 | 510 |  64 |  1 |  22 | 156 | 5.000000e+01 | 5.800000e+01 |  16.00%| unknown
* 6.9s|    35 |    28 | 15031 | 381.8 |strongbr|  25 |2850 | 521 | 509 |  64 |  1 |  22 | 202 | 5.000000e+01 | 5.500000e+01 |  10.00%| unknown
 12.2s|   100 |    79 | 34319 | 326.0 |    48M |  27 |2850 | 973 | 509 |  82 |  1 | 489 | 567 | 5.000000e+01 | 5.500000e+01 |  10.00%| unknown
 15.1s|   200 |   169 | 59924 | 290.8 |    50M |  27 |2850 |1207 | 507 | 112 |  1 | 729 | 618 | 5.000000e+01 | 5.500000e+01 |  10.00%| unknown
d15.7s|   228 |   193 | 68226 | 291.5 |pscostdi|  27 |2850 |1226 | 510 |   0 |  1 | 750 | 618 | 5.000000e+01 | 5.400000e+01 |   8.00%| unknown
 17.6s|   300 |   265 | 87187 | 284.7 |    52M |  27 |2850 |1399 | 511 | 166 |  1 | 928 | 618 | 5.000000e+01 | 5.400000e+01 |   8.00%| unknown
 20.7s|   400 |   365 |112545 | 276.9 |    53M |  34 |2850 |1621 | 512 | 182 |  1 |1164 | 699 | 5.000000e+01 | 5.400000e+01 |   8.00%| unknown
L22.8s|   483 |   434 |130627 | 266.8 |    rins|  34 |2850 |1949 | 510 | 184 |  1 |1496 | 735 | 5.000000e+01 | 5.300000e+01 |   6.00%| unknown
 23.3s|   500 |   451 |136228 | 268.9 |    55M |  34 |2850 |1981 | 514 | 191 |  2 |1532 | 735 | 5.000000e+01 | 5.300000e+01 |   6.00%| unknown
 26.3s|   600 |   549 |162891 | 268.5 |    57M |  34 |2850 |2236 | 511 | 201 |  1 |1804 | 780 | 5.000000e+01 | 5.300000e+01 |   6.00%| unknown
 time | node  | left  |LP iter|LP it/n|mem/heur|mdpt |vars |cons |rows |cuts |sepa|confs|strbr|  dualbound   | primalbound  |  gap   | compl. 
 29.5s|   700 |   649 |191928 | 271.6 |    58M |  34 |2850 |2406 | 510 | 237 |  1 |2006 | 831 | 5.000000e+01 | 5.300000e+01 |   6.00%| unknown
*31.0s|   752 |   655 |208001 | 274.2 |    LP  |  34 |2850 |2288 | 511 | 250 |  2 |2122 | 843 | 5.000000e+01 | 5.200000e+01 |   4.00%| unknown
 33.5s|   800 |   703 |236159 | 293.0 |    60M |  34 |2850 |2573 | 510 | 285 |  1 |2448 | 875 | 5.000000e+01 | 5.200000e+01 |   4.00%| unknown
 37.6s|   900 |   783 |272198 | 300.5 |    62M |  34 |2850 |2957 | 511 | 310 |  1 |2896 | 957 | 5.000000e+01 | 5.200000e+01 |   4.00%| unknown
 42.2s|  1000 |   869 |320101 | 318.4 |    64M |  36 |2850 |3403 | 508 | 347 |  1 |3443 |1018 | 5.000000e+01 | 5.200000e+01 |   4.00%| unknown
 46.5s|  1100 |   963 |363943 | 329.3 |    66M |  36 |2850 |3638 | 511 | 363 |  1 |3836 |1064 | 5.000000e+01 | 5.200000e+01 |   4.00%| unknown
 49.9s|  1200 |  1063 |407366 | 338.0 |    68M |  36 |2850 |4237 | 511 | 363 |  1 |4496 |1090 | 5.000000e+01 | 5.200000e+01 |   4.00%| unknown
 53.7s|  1300 |  1155 |446264 | 342.0 |    69M |  41 |2850 |4575 | 511 | 368 |  1 |4937 |1154 | 5.000000e+01 | 5.200000e+01 |   4.00%| unknown
 59.6s|  1400 |  1245 |479901 | 341.6 |    71M |  41 |2850 |5072 | 511 | 372 |  1 |5672 |1293 | 5.000000e+01 | 5.200000e+01 |   4.00%| unknown
 63.4s|  1500 |  1327 |511452 | 339.8 |    73M |  41 |2850 |5186 | 511 | 394 |  1 |6162 |1390 | 5.000000e+01 | 5.200000e+01 |   4.00%| unknown
L64.1s|  1513 |     0 |516309 | 340.1 |  lpface|  41 |2850 |4961 | 510 | 394 |  1 |6211 |1405 | 5.000000e+01 | 5.000000e+01 |   0.00%| 100.00%

SCIP Status        : problem is solved [optimal solution found]
Solving Time (sec) : 64.13
Solving Nodes      : 1513
Primal Bound       : +5.00000000000001e+01 (27 solutions)
Dual Bound         : +5.00000000000001e+01
Gap                : 0.00 %
SCIP Status        : problem is solved [optimal solution found]
Total Time         :      64.14
  solving          :      64.13
  presolving       :       0.13 (included in solving)
  reading          :       0.01
  copying          :       2.00 (92 #copies) (minimal 0.01, maximal 0.05, average 0.02)
Original Problem   :
  Problem name     : neos-503737
  Variables        : 2850 (2500 binary, 0 integer, 0 implicit integer, 350 continuous)
  Constraints      : 500 initial, 500 maximal
  Objective        : minimize, 350 non-zeros (abs.min = 1, abs.max = 100)
Presolved Problem  :
  Problem name     : t_neos-503737
  Variables        : 2850 (2500 binary, 0 integer, 350 implicit integer, 0 continuous)
  Constraints      : 500 initial, 5217 maximal
  Objective        : minimize, 350 non-zeros (abs.min = 1, abs.max = 100)
  Nonzeros         : 16850 constraint, 7000 clique table
Presolvers         :   ExecTime  SetupTime  Calls  FixedVars   AggrVars   ChgTypes  ChgBounds   AddHoles    DelCons    AddCons   ChgSides   ChgCoefs
  boundshift       :       0.00       0.00      0          0          0          0          0          0          0          0          0          0
  convertinttobin  :       0.00       0.00      0          0          0          0          0          0          0          0          0          0
  domcol           :       0.00       0.00      1          0          0          0          0          0          0          0          0          0
  dualagg          :       0.00       0.00      0          0          0          0          0          0          0          0          0          0
  dualcomp         :       0.00       0.00      0          0          0          0          0          0          0          0          0          0
  dualinfer        :       0.00       0.00      0          0          0          0          0          0          0          0          0          0
  dualsparsify     :       0.00       0.00      1          0          0          0          0          0          0          0          0          0
  gateextraction   :       0.00       0.00      1          0          0          0          0          0          0          0          0          0
  implics          :       0.00       0.00      2          0          0          0          0          0          0          0          0          0
  inttobinary      :       0.00       0.00      0          0          0          0          0          0          0          0          0          0
  qpkktref         :       0.00       0.00      0          0          0          0          0          0          0          0          0          0
  redvub           :       0.00       0.00      0          0          0          0          0          0          0          0          0          0
  sparsify         :       0.10       0.00      1          0          0          0          0          0          0          0          0          0
  stuffing         :       0.00       0.00      0          0          0          0          0          0          0          0          0          0
  trivial          :       0.00       0.00      3          0          0          0          0          0          0          0          0          0
  tworowbnd        :       0.00       0.00      0          0          0          0          0          0          0          0          0          0
  dualfix          :       0.00       0.00      3          0          0          0          0          0          0          0          0          0
  genvbounds       :       0.00       0.00      0          0          0          0          0          0          0          0          0          0
  probing          :       0.00       0.00      1          0          0          0          0          0          0          0          0          0
  pseudoobj        :       0.00       0.00      0          0          0          0          0          0          0          0          0          0
  symmetry         :       0.00       0.00      0          0          0          0          0          0          0          0          0          0
  vbounds          :       0.00       0.00      1          0          0          0          0          0          0          0          0          0
  knapsack         :       0.00       0.00      0          0          0          0          0          0          0          0          0          0
  setppc           :       0.00       0.00      3          0          0          0          0          0          0          0          0          0
  linear           :       0.01       0.00      5          0          0          0        350          0          0          0          0          0
  logicor          :       0.00       0.00      3          0          0          0          0          0          0          0          0          0
  bounddisjunction :       0.00       0.00      0          0          0          0          0          0          0          0          0          0
  benders          :       0.00       0.00      0          0          0          0          0          0          0          0          0          0
  components       :       0.00       0.00      1          0          0          0          0          0          0          0          0          0
  root node        :          -          -      -        295          -          -        845          -          -          -          -          -
Constraints        :     Number  MaxNumber  #Separate #Propagate    #EnfoLP    #EnfoRelax  #EnfoPS    #Check   #ResProp    Cutoffs    DomReds       Cuts    Applied      Conss   Children
  benderslp        :          0          0          0          0       1672          0          0        133          0          0          0          0          0          0          0
  integral         :          0          0          0          0       1672          0          0        133          0          2        472          0          0       1379       2916
  knapsack         :          0+        13          0      26054          0          0          0          0        374         18         57          0          0          0          0
  setppc           :        150        150         12      32520          1          0          0        107     448562        100      79100          0          0          0          0
  linear           :        300+       310         12      32417          1          0          0         27      11832         30       4743          0          0          0          0
  logicor          :         50+      4654         12      10934          1          0          0         27        833        210        162          1          1          0          0
  bounddisjunction :          0+       131          0       1390          0          0          0          0          9          0          1          0          0          0          0
  benders          :          0          0          0          0          1          0          0         28          0          0          0          0          0          0          0
  countsols        :          0          0          0          0          1          0          0         28          0          0          0          0          0          0          0
  components       :          0          0          0          0          0          0          0          0          0          0          0          0          0          0          0
Constraint Timings :  TotalTime  SetupTime   Separate  Propagate     EnfoLP     EnfoPS     EnfoRelax   Check    ResProp    SB-Prop
  benderslp        :       0.00       0.00       0.00       0.00       0.00       0.00       0.00       0.00       0.00       0.00
  integral         :      15.09       0.00       0.00       0.00      15.09       0.00       0.00       0.00       0.00       0.00
  knapsack         :       0.06       0.00       0.00       0.05       0.00       0.00       0.00       0.00       0.00       0.01
  setppc           :       0.70       0.00       0.00       0.44       0.00       0.00       0.00       0.00       0.09       0.17
  linear           :       0.15       0.00       0.00       0.10       0.00       0.00       0.00       0.00       0.01       0.03
  logicor          :       0.25       0.00       0.00       0.21       0.00       0.00       0.00       0.00       0.01       0.04
  bounddisjunction :       0.01       0.00       0.00       0.01       0.00       0.00       0.00       0.00       0.00       0.00
  benders          :       0.00       0.00       0.00       0.00       0.00       0.00       0.00       0.00       0.00       0.00
  countsols        :       0.00       0.00       0.00       0.00       0.00       0.00       0.00       0.00       0.00       0.00
  components       :       0.00       0.00       0.00       0.00       0.00       0.00       0.00       0.00       0.00       0.00
Propagators        : #Propagate   #ResProp    Cutoffs    DomReds
  dualfix          :          6          0          0          0
  genvbounds       :          0          0          0          0
  nlobbt           :          0          0          0          0
  obbt             :          0          0          0          0
  probing          :          0          0          0          0
  pseudoobj        :       5148          0          0        500
  redcost          :       3789          0          0      19091
  rootredcost      :          6          0          0         95
  symmetry         :          0          0          0          0
  vbounds          :       6435          0          0          0
Propagator Timings :  TotalTime  SetupTime   Presolve  Propagate    ResProp    SB-Prop
  dualfix          :       0.00       0.00       0.00       0.00       0.00       0.00
  genvbounds       :       0.00       0.00       0.00       0.00       0.00       0.00
  nlobbt           :       0.00       0.00       0.00       0.00       0.00       0.00
  obbt             :       0.00       0.00       0.00       0.00       0.00       0.00
  probing          :       0.00       0.00       0.00       0.00       0.00       0.00
  pseudoobj        :       0.02       0.00       0.00       0.02       0.00       0.00
  redcost          :       0.30       0.00       0.00       0.30       0.00       0.00
  rootredcost      :       0.00       0.00       0.00       0.00       0.00       0.00
  symmetry         :       0.00       0.00       0.00       0.00       0.00       0.00
  vbounds          :       0.01       0.00       0.00       0.01       0.00       0.00
Conflict Analysis  :       Time      Calls    Success    DomReds  Conflicts   Literals    Reconvs ReconvLits   Dualrays   Nonzeros   LP Iters   (pool size: [10000,10000])
  propagation      :       0.04        355        307          -       3272       91.5         39       57.5          -          -          -
  infeasible LP    :       0.14         81         81          -       1293      172.2         23       40.7         32      302.1          0
  bound exceed. LP :       3.01        742        631          -      14745      440.0         83       48.8          5      276.8       5770
  strong branching :       0.00          0          0          -          0        0.0          0        0.0          -          -          0
  pseudo solution  :       0.00          0          0          -          0        0.0          0        0.0          -          -          -
  applied globally :       0.25          -          -          0       6174      110.1          -          -         37          -          -
  applied locally  :          -          -          -          0          0        0.0          -          -          0          -          -
Separators         :   ExecTime  SetupTime      Calls  RootCalls    Cutoffs    DomReds  FoundCuts ViaPoolAdd  DirectAdd    Applied ViaPoolApp  DirectApp      Conss
  cut pool         :       0.02          -        276         24          -          -        305        253          -          -          -          -          -    (maximal pool size:        171)
  aggregation      :       0.15       0.00        111         12          0          0          0          0          0          0          0          0          0
  > cmir           :          -          -          -          -          -          -          -          0          0          0          0          0          -
  > flowcover      :          -          -          -          -          -          -          -          0          0          0          0          0          -
  > knapsackcover  :          -          -          -          -          -          -          -          0          0          0          0          0          -
  cgmip            :       0.00       0.00          0          0          0          0          0          0          0          0          0          0          0
  clique           :       0.02       0.00         12         12          0          0         75         67          0         58         58          0          0
  closecuts        :       0.00       0.00          0          0          0          0          0          0          0          0          0          0          0
  convexproj       :       0.00       0.00          0          0          0          0          0          0          0          0          0          0          0
  disjunctive      :       0.00       0.00          0          0          0          0          0          0          0          0          0          0          0
  eccuts           :       0.00       0.00          0          0          0          0          0          0          0          0          0          0          0
  gauge            :       0.00       0.00          0          0          0          0          0          0          0          0          0          0          0
  gomory           :       0.54       0.00        109         10          0          0        209        162         28         81         74          7          0
  > gomorymi       :          -          -          -          -          -          -          -         28         14         14         10          4          -
  > strongcg       :          -          -          -          -          -          -          -        134         14         67         64          3          -
  impliedbounds    :       0.00       0.00        111         12          0          0          0          0          0          0          0          0          0
  interminor       :       0.00       0.00          0          0          0          0          0          0          0          0          0          0          0
  intobj           :       0.00       0.00          0          0          0          0          0          0          0          0          0          0          0
  mcf              :       0.00       0.00          1          1          0          0          0          0          0          0          0          0          0
  minor            :       0.00       0.00          0          0          0          0          0          0          0          0          0          0          0
  mixing           :       0.00       0.00        111         12          0          0          0          0          0          0          0          0          0
  oddcycle         :       0.00       0.00          0          0          0          0          0          0          0          0          0          0          0
  rapidlearning    :       6.65       0.00         76          1          0          7          0          0          0          0          0          0          8
  rlt              :       0.00       0.00         10         10          0          0          0          0          0          0          0          0          0
  zerohalf         :       0.66       0.00        111         12          0          0        301         24        252        254         14        240          0
Cutselectors       :   ExecTime  SetupTime      Calls  RootCalls   Selected     Forced   Filtered  RootSelec   RootForc   RootFilt 
  hybrid           :       0.00       0.00        120         13        394          0        140         55          0         17
Pricers            :   ExecTime  SetupTime      Calls       Vars
  problem variables:       0.00          -          0          0
Branching Rules    :   ExecTime  SetupTime   BranchLP  BranchExt   BranchPS    Cutoffs    DomReds       Cuts      Conss   Children
  allfullstrong    :       0.00       0.00          0          0          0          0          0          0          0          0
  cloud            :       0.00       0.00          0          0          0          0          0          0          0          0
  distribution     :       0.00       0.00          0          0          0          0          0          0          0          0
  fullstrong       :       0.00       0.00          0          0          0          0          0          0          0          0
  inference        :       0.00       0.00          0          0          0          0          0          0          0          0
  leastinf         :       0.00       0.00          0          0          0          0          0          0          0          0
  lookahead        :       0.00       0.00          0          0          0          0          0          0          0          0
  mostinf          :       0.00       0.00          0          0          0          0          0          0          0          0
  multaggr         :       0.00       0.00          0          0          0          0          0          0          0          0
  nodereopt        :       0.00       0.00          0          0          0          0          0          0          0          0
  pscost           :       0.00       0.00          0          0          0          0          0          0          0          0
  random           :       0.00       0.00          0          0          0          0          0          0          0          0
  relpscost        :      15.09       0.00       1671          0          0          2        472          0       1447       2916
  vanillafullstrong:       0.00       0.00          0          0          0          0          0          0          0          0
Primal Heuristics  :   ExecTime  SetupTime      Calls      Found       Best
  LP solutions     :       0.00          -          -          1          1
  relax solutions  :       0.00          -          -          0          0
  pseudo solutions :       0.00          -          -          0          0
  strong branching :       0.01          -          -          2          2
  actconsdiving    :       0.00       0.00          0          0          0
  adaptivediving   :       0.33       0.00         10          0          0
  alns             :       2.09       0.00          5          0          0
  bound            :       0.00       0.00          0          0          0
  clique           :       0.02       0.00          1          1          1
  coefdiving       :       0.00       0.00          0          0          0
  completesol      :       0.00       0.00          0          0          0
  conflictdiving   :       1.19       0.00         28          0          0
  crossover        :       0.21       0.00          4          0          0
  dins             :       0.00       0.00          0          0          0
  distributiondivin:       1.28       0.00         28          0          0
  dps              :       0.00       0.00          0          0          0
  dualval          :       0.00       0.00          0          0          0
  farkasdiving     :       0.00       0.00          0          0          0
  feaspump         :       0.12       0.00          1          1          1
  fixandinfer      :       0.00       0.00          0          0          0
  fracdiving       :       1.71       0.00         28          0          0
  gins             :       0.00       0.00          0          0          0
  guideddiving     :       1.46       0.00         27          0          0
  indicator        :       0.00       0.00          0          0          0
  intdiving        :       0.00       0.00          0          0          0
  intshifting      :       0.00       0.00          0          0          0
  linesearchdiving :       2.04       0.00         21          0          0
  localbranching   :       0.00       0.00          0          0          0
  locks            :       0.01       0.00          1          1          1
  lpface           :       3.15       0.00          2          1          1
  mpec             :       0.00       0.00          0          0          0
  multistart       :       0.00       0.00          0          0          0
  mutation         :       0.00       0.00          0          0          0
  nlpdiving        :       0.00       0.00          0          0          0
  objpscostdiving  :       1.00       0.00         14          1          0
  octane           :       0.00       0.00          0          0          0
  ofins            :       0.00       0.00          0          0          0
  oneopt           :       0.00       0.00          7          0          0
  padm             :       0.00       0.00          0          0          0
  proximity        :       0.00       0.00          0          0          0
  pscostdiving     :       1.93       0.00         20          1          1
  randrounding     :       0.09       0.00         98          0          0
  rens             :       0.02       0.00          1          0          0
  reoptsols        :       0.00       0.00          0          0          0
  repair           :       0.00       0.00          0          0          0
  rins             :       0.45       0.00          6          4          1
  rootsoldiving    :       1.13       0.00         14         14          0
  rounding         :       0.14       0.00        582          0          0
  shiftandpropagate:       0.00       0.00          0          0          0
  shifting         :       0.14       0.00        189          0          0
  simplerounding   :       0.00       0.00          0          0          0
  subnlp           :       0.00       0.00          0          0          0
  trivial          :       0.00       0.00          2          0          0
  trivialnegation  :       0.00       0.00          0          0          0
  trustregion      :       0.00       0.00          0          0          0
  trysol           :       0.00       0.00          0          0          0
  twoopt           :       0.00       0.00          0          0          0
  undercover       :       0.00       0.00          0          0          0
  vbounds          :       0.02       0.00          1          0          0
  veclendiving     :       1.33       0.00         28          0          0
  zeroobj          :       0.00       0.00          0          0          0
  zirounding       :       0.04       0.00       1000          0          0
  other solutions  :          -          -          -          0          -
LP                 :       Time      Calls Iterations  Iter/call   Iter/sec  Time-0-It Calls-0-It    ItLimit
  primal LP        :       0.76         61          0       0.00       0.00       0.76         61
  dual LP          :      17.78       2156     338201     184.51   19023.90       0.10        323
  lex dual LP      :       0.00          0          0       0.00          -
  barrier LP       :       0.00          0          0       0.00          -       0.00          0
  resolve instable :       0.00          0          0       0.00          -
  diving/probing LP:       9.92       1112     178108     160.17   17961.14
  strong branching :      12.00       1405     270588     192.59   22542.49          -          -        167
    (at root node) :          -         10       3202     320.20          -
  conflict analysis:       0.65        577       5770      10.00    8829.12
B&B Tree           :
  number of runs   :          1
  nodes            :       1513 (1458 internal, 55 leaves)
  feasible leaves  :          1
  infeas. leaves   :         12
  objective leaves :         42
  nodes (total)    :       1513 (1458 internal, 55 leaves)
  nodes left       :          0
  max depth        :         41
  max depth (total):         41
  backtracks       :        228 (15.1%)
  early backtracks :          0 (0.0%)
  nodes exc. ref.  :          0 (0.0%)
  delayed cutoffs  :          0
  repropagations   :        107 (40 domain reductions, 0 cutoffs)
  avg switch length:       4.82
  switching time   :       1.25
Root Node          :
  First LP value   : +5.00000000000001e+01
  First LP Iters   :          1 (22.84 Iter/sec)
  First LP Time    :       0.04
  Final Dual Bound : +5.00000000000001e+01
  Final Root Iters :       2049
  Root LP Estimate : +5.06731609403972e+01
Solution           :
  Solutions found  :         27 (9 improvements)
  First Solution   : +5.03000000000000e+03   (in run 1, after 1 nodes, 0.16 seconds, depth 43, found by <clique>)
  Gap First Sol.   :   infinite
  Gap Last Sol.    :       0.00 %
  Primal Bound     : +5.00000000000001e+01   (in run 1, after 1513 nodes, 64.11 seconds, depth 22, found by <lpface>)
  Dual Bound       : +5.00000000000001e+01
  Gap              :       0.00 %
Integrals          :      Total       Avg%
  primal-dual      :     614.58       9.58
  primal-ref       :          -          - (not evaluated)
  dual-ref         :          -          - (not evaluated)
written solution information to file <results/final_miplib_symretope_if_extended_generating_set_cpx_v802__settings_final_nosym_norestarts__0__neos-503737.mps.gz.sol>
@04 1686649298
